p tw 57 6841 2 
1 3 
1 4 
1 5 
1 6 
1 7 
1 8 
1 9 
1 10 
1 11 
1 12 
1 13 
1 14 
1 15 
1 16 
1 17 
1 18 
1 25 
1 26 
1 27 
1 28 
1 29 
1 30 
1 31 
2 3 
2 4 
2 5 
2 6 
2 7 
2 8 
2 9 
2 10 
2 13 
2 18 
2 19 
2 20 
2 21 
2 22 
2 23 
2 24 
2 31 
2 34 
2 41 
2 45 
2 51 
2 56 
2 57 
3 4 
3 5 
3 6 
3 7 
3 8 
3 9 
3 10 
3 11 
3 19 
3 25 
3 30 
3 32 
3 33 
3 34 
3 35 
3 36 
3 37 
3 46 
3 49 
3 51 
3 53 
3 54 
4 5 
4 6 
4 7 
4 8 
4 9 
4 12 
4 17 
4 20 
4 24 
4 25 
4 27 
4 32 
4 37 
4 38 
4 39 
4 40 
4 41 
4 48 
4 52 
4 54 
4 57 
5 6 
5 7 
5 8 
5 9 
5 13 
5 16 
5 21 
5 23 
5 26 
5 28 
5 32 
5 36 
5 37 
5 38 
5 42 
5 43 
5 44 
5 53 
5 55 
5 57 
6 7 
6 8 
6 9 
6 11 
6 12 
6 19 
6 22 
6 26 
6 29 
6 38 
6 42 
6 45 
6 46 
6 47 
6 48 
6 50 
6 54 
6 55 
6 56 
7 8 
7 9 
7 14 
7 17 
7 18 
7 23 
7 27 
7 33 
7 35 
7 39 
7 41 
7 42 
7 44 
7 45 
7 47 
7 49 
7 50 
7 53 
8 9 
8 15 
8 16 
8 22 
8 24 
8 28 
8 29 
8 33 
8 34 
8 39 
8 40 
8 43 
8 44 
8 46 
8 50 
8 51 
8 52 
9 14 
9 15 
9 20 
9 21 
9 30 
9 31 
9 35 
9 36 
9 40 
9 43 
9 47 
9 48 
9 49 
9 52 
9 55 
9 56 
10 11 
10 12 
10 13 
10 14 
10 15 
10 16 
10 17 
10 18 
10 19 
10 20 
10 21 
10 22 
10 23 
10 24 
10 30 
10 37 
10 46 
10 49 
10 51 
10 53 
10 54 
11 12 
11 13 
11 14 
11 15 
11 16 
11 17 
11 19 
11 22 
11 25 
11 26 
11 32 
11 33 
11 34 
11 35 
11 36 
11 38 
11 45 
11 46 
11 47 
11 48 
12 13 
12 14 
12 15 
12 16 
12 17 
12 19 
12 20 
12 25 
12 29 
12 37 
12 38 
12 39 
12 40 
12 41 
12 42 
12 50 
12 54 
12 55 
12 56 
13 14 
13 15 
13 16 
13 17 
13 21 
13 26 
13 31 
13 32 
13 34 
13 37 
13 41 
13 42 
13 43 
13 44 
13 45 
13 51 
13 56 
13 57 
14 15 
14 16 
14 17 
14 20 
14 23 
14 27 
14 30 
14 33 
14 36 
14 39 
14 42 
14 43 
14 45 
14 47 
14 49 
14 52 
14 56 
15 16 
15 17 
15 21 
15 24 
15 28 
15 31 
15 34 
15 35 
15 39 
15 40 
15 43 
15 46 
15 48 
15 49 
15 50 
15 55 
16 17 
16 22 
16 23 
16 28 
16 29 
16 33 
16 36 
16 38 
16 40 
16 44 
16 51 
16 52 
16 53 
16 55 
16 57 
17 18 
17 24 
17 27 
17 32 
17 35 
17 41 
17 44 
17 47 
17 48 
17 50 
17 52 
17 53 
17 54 
17 57 
18 19 
18 20 
18 21 
18 22 
18 23 
18 24 
18 25 
18 26 
18 27 
18 28 
18 29 
18 30 
18 31 
18 35 
18 41 
18 44 
18 47 
18 50 
18 53 
19 20 
19 21 
19 22 
19 23 
19 24 
19 25 
19 29 
19 32 
19 33 
19 34 
19 35 
19 36 
19 42 
19 50 
19 54 
19 55 
19 56 
20 21 
20 22 
20 23 
20 24 
20 25 
20 30 
20 36 
20 37 
20 38 
20 39 
20 40 
20 41 
20 43 
20 47 
20 52 
20 56 
21 22 
21 23 
21 24 
21 26 
21 31 
21 32 
21 35 
21 37 
21 40 
21 42 
21 43 
21 44 
21 48 
21 49 
21 55 
22 23 
22 24 
22 26 
22 29 
22 33 
22 38 
22 40 
22 44 
22 45 
22 46 
22 47 
22 48 
22 51 
22 52 
23 24 
23 27 
23 28 
23 33 
23 36 
23 38 
23 39 
23 42 
23 45 
23 49 
23 53 
23 55 
23 57 
24 27 
24 28 
24 32 
24 34 
24 39 
24 43 
24 46 
24 48 
24 50 
24 52 
24 54 
24 57 
25 26 
25 27 
25 28 
25 29 
25 30 
25 31 
25 32 
25 33 
25 34 
25 35 
25 36 
25 37 
25 38 
25 39 
25 40 
25 41 
26 27 
26 28 
26 29 
26 30 
26 31 
26 32 
26 37 
26 38 
26 42 
26 43 
26 44 
26 45 
26 46 
26 47 
26 48 
27 28 
27 29 
27 30 
27 31 
27 32 
27 33 
27 39 
27 42 
27 45 
27 48 
27 49 
27 52 
27 54 
27 57 
28 29 
28 30 
28 31 
28 34 
28 36 
28 38 
28 39 
28 43 
28 46 
28 50 
28 53 
28 55 
28 57 
29 30 
29 31 
29 33 
29 40 
29 42 
29 44 
29 50 
29 51 
29 52 
29 54 
29 55 
29 56 
30 31 
30 36 
30 37 
30 43 
30 46 
30 47 
30 49 
30 51 
30 52 
30 53 
30 54 
30 56 
31 34 
31 35 
31 40 
31 41 
31 45 
31 48 
31 49 
31 51 
31 55 
31 56 
31 57 
32 33 
32 34 
32 35 
32 36 
32 37 
32 42 
32 43 
32 44 
32 48 
32 52 
32 54 
32 57 
33 34 
33 35 
33 36 
33 39 
33 40 
33 42 
33 44 
33 45 
33 49 
33 51 
33 52 
34 35 
34 36 
34 39 
34 41 
34 43 
34 45 
34 46 
34 50 
34 51 
34 56 
34 57 
35 36 
35 40 
35 41 
35 44 
35 47 
35 48 
35 49 
35 50 
35 53 
35 55 
36 38 
36 43 
36 47 
36 52 
36 53 
36 55 
36 56 
36 57 
37 38 
37 39 
37 40 
37 41 
37 42 
37 43 
37 44 
37 46 
37 49 
37 51 
37 53 
37 54 
38 39 
38 40 
38 41 
38 45 
38 46 
38 47 
38 48 
38 53 
38 55 
38 57 
39 40 
39 41 
39 42 
39 43 
39 45 
39 46 
39 49 
39 50 
40 41 
40 44 
40 48 
40 49 
40 51 
40 52 
40 55 
41 44 
41 45 
41 47 
41 50 
41 51 
41 53 
41 56 
41 57 
42 43 
42 44 
42 45 
42 49 
42 50 
42 54 
42 55 
42 56 
43 44 
43 46 
43 47 
43 50 
43 52 
43 56 
44 47 
44 50 
44 51 
44 52 
44 53 
45 46 
45 47 
45 48 
45 49 
45 51 
45 56 
45 57 
46 47 
46 48 
46 49 
46 50 
46 51 
46 53 
46 54 
47 48 
47 50 
47 52 
47 53 
47 56 
48 49 
48 52 
48 54 
48 55 
48 57 
49 51 
49 53 
49 54 
49 55 
50 53 
50 54 
50 55 
50 56 
51 52 
51 53 
51 54 
51 56 
51 57 
52 54 
52 56 
52 57 
53 54 
53 55 
53 57 
54 55 
54 56 
54 57 
55 56 
55 57 
56 57 
